c Generated map
c Size: 9 * 9, weights in range: 1 to 10, walls: False, with ratio 0.0
c dim 2 of 7
c
p sp 81 144
c graph contains 81 nodes and 144 arcs
c
a 1 10 10
a 10 1 10
a 1 2 8
a 2 1 8
a 2 11 5
a 11 2 5
a 2 3 6
a 3 2 6
a 3 12 2
a 12 3 2
a 3 4 5
a 4 3 5
a 4 13 10
a 13 4 10
a 4 5 1
a 5 4 1
a 5 14 10
a 14 5 10
a 5 6 8
a 6 5 8
a 6 15 7
a 15 6 7
a 6 7 8
a 7 6 8
a 7 16 9
a 16 7 9
a 7 8 8
a 8 7 8
a 8 17 10
a 17 8 10
a 8 9 8
a 9 8 8
a 9 18 3
a 18 9 3
a 10 19 6
a 19 10 6
a 10 11 6
a 11 10 6
a 11 20 8
a 20 11 8
a 11 12 1
a 12 11 1
a 12 21 2
a 21 12 2
a 12 13 3
a 13 12 3
a 13 22 10
a 22 13 10
a 13 14 8
a 14 13 8
a 14 23 10
a 23 14 10
a 14 15 6
a 15 14 6
a 15 24 4
a 24 15 4
a 15 16 5
a 16 15 5
a 16 25 5
a 25 16 5
a 16 17 9
a 17 16 9
a 17 26 6
a 26 17 6
a 17 18 7
a 18 17 7
a 18 27 4
a 27 18 4
a 19 28 6
a 28 19 6
a 19 20 9
a 20 19 9
a 20 29 7
a 29 20 7
a 20 21 2
a 21 20 2
a 21 30 9
a 30 21 9
a 21 22 10
a 22 21 10
a 22 31 4
a 31 22 4
a 22 23 1
a 23 22 1
a 23 32 3
a 32 23 3
a 23 24 4
a 24 23 4
a 24 33 10
a 33 24 10
a 24 25 10
a 25 24 10
a 25 34 1
a 34 25 1
a 25 26 1
a 26 25 1
a 26 35 4
a 35 26 4
a 26 27 2
a 27 26 2
a 27 36 6
a 36 27 6
a 28 37 8
a 37 28 8
a 28 29 4
a 29 28 4
a 29 38 9
a 38 29 9
a 29 30 5
a 30 29 5
a 30 39 2
a 39 30 2
a 30 31 8
a 31 30 8
a 31 40 1
a 40 31 1
a 31 32 1
a 32 31 1
a 32 41 1
a 41 32 1
a 32 33 2
a 33 32 2
a 33 42 5
a 42 33 5
a 33 34 3
a 34 33 3
a 34 43 1
a 43 34 1
a 34 35 2
a 35 34 2
a 35 44 2
a 44 35 2
a 35 36 7
a 36 35 7
a 36 45 3
a 45 36 3
a 37 46 9
a 46 37 9
a 37 38 7
a 38 37 7
a 38 47 7
a 47 38 7
a 38 39 6
a 39 38 6
a 39 48 2
a 48 39 2
a 39 40 2
a 40 39 2
a 40 49 9
a 49 40 9
a 40 41 9
a 41 40 9
a 41 50 8
a 50 41 8
a 41 42 10
a 42 41 10
a 42 51 3
a 51 42 3
a 42 43 10
a 43 42 10
a 43 52 2
a 52 43 2
a 43 44 4
a 44 43 4
a 44 53 3
a 53 44 3
a 44 45 10
a 45 44 10
a 45 54 4
a 54 45 4
a 46 55 3
a 55 46 3
a 46 47 3
a 47 46 3
a 47 56 5
a 56 47 5
a 47 48 5
a 48 47 5
a 48 57 7
a 57 48 7
a 48 49 7
a 49 48 7
a 49 58 7
a 58 49 7
a 49 50 10
a 50 49 10
a 50 59 4
a 59 50 4
a 50 51 10
a 51 50 10
a 51 60 7
a 60 51 7
a 51 52 5
a 52 51 5
a 52 61 10
a 61 52 10
a 52 53 2
a 53 52 2
a 53 62 4
a 62 53 4
a 53 54 1
a 54 53 1
a 54 63 8
a 63 54 8
a 55 64 10
a 64 55 10
a 55 56 6
a 56 55 6
a 56 65 2
a 65 56 2
a 56 57 4
a 57 56 4
a 57 66 2
a 66 57 2
a 57 58 1
a 58 57 1
a 58 67 7
a 67 58 7
a 58 59 4
a 59 58 4
a 59 68 6
a 68 59 6
a 59 60 1
a 60 59 1
a 60 69 1
a 69 60 1
a 60 61 4
a 61 60 4
a 61 70 4
a 70 61 4
a 61 62 5
a 62 61 5
a 62 71 10
a 71 62 10
a 62 63 7
a 63 62 7
a 63 72 5
a 72 63 5
a 64 73 3
a 73 64 3
a 64 65 7
a 65 64 7
a 65 74 7
a 74 65 7
a 65 66 5
a 66 65 5
a 66 75 2
a 75 66 2
a 66 67 3
a 67 66 3
a 67 76 2
a 76 67 2
a 67 68 10
a 68 67 10
a 68 77 6
a 77 68 6
a 68 69 10
a 69 68 10
a 69 78 5
a 78 69 5
a 69 70 6
a 70 69 6
a 70 79 2
a 79 70 2
a 70 71 10
a 71 70 10
a 71 80 6
a 80 71 6
a 71 72 1
a 72 71 1
a 72 81 8
a 81 72 8
a 73 74 1
a 74 73 1
a 74 75 3
a 75 74 3
a 75 76 4
a 76 75 4
a 76 77 2
a 77 76 2
a 77 78 8
a 78 77 8
a 78 79 2
a 79 78 2
a 79 80 7
a 80 79 7
a 80 81 10
a 81 80 10
